# Problem 3
# Author: Aditya Chetan
# Roll No.: 2016217


param num_prod := 5;
param num_rml := 4;

param profits :=
1 	100
2 	150
3 	90
4 	200
5 	50;

param stock :=
1 	20
2 	10
3 	40
4 	15;

param req :
	1 	2 	3 	4 	5	:=
1 	2 	3 	4 	5 	10
2 	6 	7 	8 	9 	11
3 	10 	11 	12 	13 	12
4 	4 	5 	6 	7 	13;

